Solving original (integer) problem with strategy gdp.hull...
--- Job model.gms Start 02/14/26 21:28:56 52.2.0 d8e408be LEX-LEG x86 64bit/Linux
--- Applying:
    /package/gams/52.2/gmsprmun.txt
--- GAMS Parameters defined
    Input /local/scratch/a/sgusev/repos/k_means/data/gams_gurobi_gdp.hull/no_mode/2026-02-14_21-28-56/original/model.gms
    Output /local/scratch/a/sgusev/repos/k_means/data/gams_gurobi_gdp.hull/no_mode/2026-02-14_21-28-56/original/output.lst
    ScrDir /local/scratch/a/sgusev/repos/k_means/data/gams_gurobi_gdp.hull/no_mode/2026-02-14_21-28-56/original/225a/
    SysDir /package/gams/52.2/
    CurDir /local/scratch/a/sgusev/repos/k_means/data/gams_gurobi_gdp.hull/no_mode/2026-02-14_21-28-56/original/
    LogOption 3
    AppendLog 1
Licensee: David Bernal / SECQUOIA Research Group         G251008+0003Ac-GEN
          Purdue University, Davidson School of Chemical EngineeringDCE4838
          225a/gamslice.dat
          5a82958a-fbca-4a23
          node:66820903 mem:995 cores:48 ipport:47059 v:2                  
          Evaluation license: Not for commercial or production use
          The time-limited license stops working on : Jun 30, 2027
System information: 48 physical cores and 995 Gb physical memory detected
GAMS 52.2.0   Copyright (C) 1987-2025 GAMS Development. All rights reserved
--- Starting compilation
--- model.gms(3551) 2 Mb
--- $echo File /local/scratch/a/sgusev/repos/k_means/data/gams_gurobi_gdp.hull/no_mode/2026-02-14_21-28-56/original/gurobi.opt
--- model.gms(5196) 2 Mb
--- Starting execution: elapsed 0:00:00.019
--- model.gms(3560) 3 Mb
--- Generating MINLP model GAMS_MODEL
--- model.gms(3564) 6 Mb
---   1,082 rows  497 columns  2,605 non-zeroes
---   2,262 nl-code  273 nl-non-zeroes
---   39 discrete-columns
--- Range statistics (absolute non-zero finite values)
--- RHS       [min, max] : [ 1.128E-05, 1.000E+00] - Zero values observed as well
--- Bound     [min, max] : [ 1.000E+00, 1.300E+02] - Zero values observed as well
--- Matrix    [min, max] : [ 1.157E-02, 1.300E+02]
--- model.gms(3564) 4 Mb
--- Executing GUROBI (Solvelink=5): elapsed 0:00:00.025
Reading parameter(s) from "/local/scratch/a/sgusev/repos/k_means/data/gams_gurobi_gdp.hull/no_mode/2026-02-14_21-28-56/original/gurobi.opt"
>>  NonConvex 2
>>  Threads 1
>>  MIPGap 1e-06
>>  MIPGapAbs 1e-10
>>  FeasibilityTol 1e-06
>>  OptimalityTol 1e-06
>>  IntFeasTol 1e-05
Finished reading from "/local/scratch/a/sgusev/repos/k_means/data/gams_gurobi_gdp.hull/no_mode/2026-02-14_21-28-56/original/gurobi.opt"

... GRB_LICENSE_FILE = /local/scratch/a/sgusev/gurobi.lic

    Gurobi           52.2.0 d8e408be Dec 8, 2025           LEG x86 64bit/Linux    

... GAMS/Gurobi Link license.
... GMO Q Extraction (ThreePass): 0.00s

    Gurobi Optimizer version 13.0.0 build v13.0.0rc1 (linux64 - "Oracle Linux Server 9.7")
    
    CPU model: AMD EPYC 7643 48-Core Processor, instruction set [SSE2|AVX|AVX2]
    Thread count: 48 physical cores, 96 logical processors, using up to 1 threads
    
    Non-default parameters:
    TimeLimit  300
    MIPGap  1e-06
    LogToConsole  0
    NonConvex  2
    Threads  1
    
    Optimize a model with 1081 rows, 535 columns and 2357 nonzeros (Min)
    Model fingerprint: 0x06e56524
    Model has 13 linear objective coefficients
    Model has 39 general nonlinear constraints (468 nonlinear terms)
    Variable types: 496 continuous, 39 integer (0 binary)
    Coefficient statistics:
      Matrix range     [1e+00, 1e+02]
      Objective range  [1e+00, 1e+00]
      Bounds range     [1e+00, 1e+02]
      RHS range        [1e+00, 1e+00]
      NLCon coe range  [1e-05, 1e+00]
    Presolve model has 39 nlconstr
    Added 975 variables to disaggregate expressions
    Presolve removed 234 rows and 208 columns
    Presolve time: 0.01s
    Presolved: 3070 rows, 1303 columns, 7804 nonzeros
    Presolved model has 468 bilinear constraint(s)
    
    Solving non-convex MIQCP to global optimality
    
    Variable types: 1264 continuous, 39 integer (39 binary)
    Found heuristic solution: objective 14.4582034
    
    Root relaxation: objective 0.000000e+00, 1032 iterations, 0.00 seconds (0.00 work units)
    
        Nodes    |    Current Node    |     Objective Bounds      |     Work
     Expl Unexpl |  Obj  Depth IntInf | Incumbent    BestBd   Gap | It/Node Time
    
         0     0    0.00000    0  429   14.45820    0.00000   100%     -    0s
         0     0    0.00000    0  420   14.45820    0.00000   100%     -    0s
         0     0    0.00000    0  416   14.45820    0.00000   100%     -    0s
         0     0    0.00000    0  894   14.45820    0.00000   100%     -    0s
         0     0    0.00000    0  564   14.45820    0.00000   100%     -    0s
         0     0    0.00000    0  419   14.45820    0.00000   100%     -    0s
         0     0    0.00000    0  419   14.45820    0.00000   100%     -    0s
         0     0    0.00000    0  284   14.45820    0.00000   100%     -    0s
         0     0    0.00000    0  321   14.45820    0.00000   100%     -    0s
         0     0    0.00000    0  415   14.45820    0.00000   100%     -    0s
         0     0    0.00000    0  189   14.45820    0.00000   100%     -    0s
         0     0    0.00000    0  189   14.45820    0.00000   100%     -    0s
         0     0    0.00000    0  189   14.45820    0.00000   100%     -    0s
    H    0     0                      11.7752755    0.00000   100%     -    0s
    H    0     0                      11.4841440    0.00000   100%     -    0s
    H    0     0                      11.2505174    0.00000   100%     -    0s
         0     0    0.00000    0  186   11.25052    0.00000   100%     -    0s
         0     0    0.00000    0  186   11.25052    0.00000   100%     -    0s
         0     0    0.00000    0  154   11.25052    0.00000   100%     -    0s
         0     0    0.00000    0  164   11.25052    0.00000   100%     -    0s
         0     0    0.00000    0  168   11.25052    0.00000   100%     -    0s
         0     0    0.00000    0  168   11.25052    0.00000   100%     -    0s
         0     0    0.00000    0  170   11.25052    0.00000   100%     -    0s
         0     0    0.00000    0  174   11.25052    0.00000   100%     -    0s
         0     0    0.00000    0  151   11.25052    0.00000   100%     -    0s
         0     0    0.00000    0  151   11.25052    0.00000   100%     -    0s
         0     0    0.00000    0  151   11.25052    0.00000   100%     -    0s
         0     2    0.00000    0  151   11.25052    0.00000   100%     -    0s
    H    1     1                      10.2966103    0.00000   100%   0.0    0s
    H  316   261                       9.6533014    0.00000   100%  16.0    2s
       698   551    0.00000   16  163    9.65330    0.00000   100%  23.4    5s
    H  753   560                       9.6187764    0.00000   100%  24.3    5s
    H  789   557                       9.6118028    0.00000   100%  23.5    5s
    H  789   535                       9.5875044    0.00000   100%  23.5    5s
    H  789   514                       9.5846499    0.00000   100%  23.5    5s
    H  789   494                       9.5754247    0.00000   100%  23.5    5s
    H  789   475                       9.5748653    0.00000   100%  23.5    5s
    H  789   457                       9.5737142    0.00000   100%  23.5    5s
    H  799   445                       9.5737025    0.00000   100%  23.3    5s
    H  832   437                       9.4980531    0.00000   100%  24.7    5s
    H  832   422                       9.4972449    0.00000   100%  24.7    5s
    H  841   411                       9.3964407    0.00000   100%  25.2    5s
    H  841   397                       9.3934346    0.00000   100%  25.2    5s
    H  841   384                       9.3896563    0.00000   100%  25.2    5s
    H  841   371                       9.3896125    0.00000   100%  25.2    5s
    H  925   388                       9.3111524    0.00000   100%  24.5    5s
    H  925   374                       9.2760952    0.00000   100%  24.5    5s
    H  940   374                       9.2330695    0.00000   100%  25.6    5s
    H  943   365                       9.2264414    0.00000   100%  25.6    5s
    H  971   344                       8.8076855    0.00000   100%  25.3    5s
    H  996   346                       8.8076835    0.00000   100%  24.8    5s
    H  996   338                       8.8076828    0.00000   100%  24.8    5s
    H  996   329                       8.8076828    0.00000   100%  24.8    5s
    H  997   320                       8.7530391    0.00000   100%  24.8    5s
    H 1030   352                       8.7404634    0.00000   100%  24.2    6s
    H 1030   352                       8.7403195    0.00000   100%  24.2    6s
    H 1030   352                       8.7393163    0.00000   100%  24.2    6s
    H 1045   367                       8.7331106    0.00000   100%  23.9    6s
    H 1045   367                       8.7312699    0.00000   100%  23.9    6s
    H 1058   380                       8.7171494    0.00000   100%  23.6    6s
    H 1058   380                       8.7124729    0.00000   100%  23.6    6s
    H 1058   380                       8.7123680    0.00000   100%  23.6    6s
    H 1114   436                       8.7038264    0.00000   100%  22.6    6s
    H 1115   437                       8.7038241    0.00000   100%  22.5    6s
    H 1120   442                       8.7037685    0.00000   100%  22.5    6s
    H 1173   491                       8.7029547    0.00000   100%  21.5    6s
    H 1207   517                       8.7017991    0.00000   100%  21.0    6s
    H 1223   533                       8.7005751    0.00000   100%  20.8    6s
    H 1223   533                       8.7003958    0.00000   100%  20.8    6s
    H 1223   533                       8.7002716    0.00000   100%  20.8    6s
    H 1223   533                       8.7002555    0.00000   100%  20.8    6s
    * 1262   566             185       8.6965292    0.00000   100%  20.2    6s
    H 2153  1167                       8.5965937    0.36061  95.8%  19.0    7s
    * 2668  1595             156       8.5345235    0.36061  95.8%  15.9    8s
    * 2680  1587             158       8.5345139    0.36061  95.8%  15.9    8s
      3680  2258    7.20181   42   59    8.53451    1.17474  86.2%  16.8   10s
    * 4893  2908             180       8.4868726    1.60166  81.1%  16.3   11s
    H 5899  3424                       8.4868646    1.86657  78.0%  16.9   12s
    H 7001  3903                       8.4868624    2.30651  72.8%  17.5   14s
      7566  4191     cutoff   31         8.48686    2.40384  71.7%  17.6   15s
    H 9206  4990                       8.4868593    2.67847  68.4%  17.5   17s
     11442  5987    3.31901   21  123    8.48686    2.99480  64.7%  17.3   20s
    H14192  6740                       8.3208691    3.28537  60.5%  17.0   23s
    H14458  6833                       8.3208691    3.29517  60.4%  17.0   23s
     15273  7187    7.67839   38   76    8.32087    3.40593  59.1%  16.9   25s
     19064  8684    7.60323   29   86    8.32087    3.73504  55.1%  16.8   30s
     22865 10266    6.58914   26  117    8.32087    3.96037  52.4%  16.5   35s
     26817 11591    8.03376   35   67    8.32087    4.21918  49.3%  16.5   40s
     30676 12790    8.30447   32   79    8.32087    4.40822  47.0%  16.5   45s
     34741 14179 infeasible   35         8.32087    4.56486  45.1%  16.4   50s
     38725 15277    7.57053   23  106    8.32087    4.72276  43.2%  16.4   55s
    H39683 15534                       8.3062050    4.75297  42.8%  16.4   56s
    H39999 15611                       8.3062041    4.76284  42.7%  16.3   56s
     42377 16204    7.16634   27   85    8.30620    4.84037  41.7%  16.3   60s
     46126 16990    8.04423   47   59    8.30620    4.95279  40.4%  16.4   65s
     49827 17898    8.18307   40   62    8.30620    5.08185  38.8%  16.4   70s
     53456 18637    8.16883   35   71    8.30620    5.19325  37.5%  16.3   75s
     57326 19869     cutoff   24         8.30620    5.28943  36.3%  16.2   80s
     61302 20590    6.92958   25  102    8.30620    5.40898  34.9%  16.2   85s
     65133 21614    8.07230   38   68    8.30620    5.49090  33.9%  16.1   90s
     68903 22082     cutoff   37         8.30620    5.57871  32.8%  16.2   95s
     72393 22747    6.99345   26   79    8.30620    5.65621  31.9%  16.1  100s
     76245 23392    7.41311   37   64    8.30620    5.74622  30.8%  16.1  105s
     80089 24100    7.55319   25  105    8.30620    5.82188  29.9%  16.1  110s
    H81546 24345                       8.3062030    5.84340  29.7%  16.0  111s
     83332 24537     cutoff   45         8.30620    5.87740  29.2%  16.0  115s
     87059 25079    7.44866   34   72    8.30620    5.96031  28.2%  16.0  120s
    H87443 24044                       8.1618354    5.96548  26.9%  16.0  120s
    H89137 24299                       8.1618346    6.00958  26.4%  16.0  122s
     90848 24394    6.59349   26  102    8.16183    6.05401  25.8%  16.0  125s
     94859 24911    7.93033   38   66    8.16183    6.13296  24.9%  15.8  130s
     98714 25429    7.49987   72   62    8.16183    6.20291  24.0%  15.7  135s
     102691 25648    7.91006   48   59    8.16183    6.28433  23.0%  15.7  140s
     106792 25936    7.35904   26  101    8.16183    6.36403  22.0%  15.6  145s
     110836 26284 infeasible   38         8.16183    6.43534  21.2%  15.5  150s
     114239 26486    7.80788   35   48    8.16183    6.49023  20.5%  15.4  155s
     118128 26813    7.63216   47   50    8.16183    6.55379  19.7%  15.2  160s
     122257 27570    7.61105   34   65    8.16183    6.60703  19.0%  15.1  165s
     126462 28102    7.81166   52   65    8.16183    6.66004  18.4%  14.9  170s
     130669 28271    7.69885   42   59    8.16183    6.72293  17.6%  14.8  175s
     134705 28808 infeasible   37         8.16183    6.75723  17.2%  14.7  180s
     139103 29237    7.89439   35   58    8.16183    6.80177  16.7%  14.5  185s
     143484 29765 infeasible   36         8.16183    6.83840  16.2%  14.3  190s
     148049 30322     cutoff   29         8.16183    6.87603  15.8%  14.2  195s
     152496 30885 infeasible   36         8.16183    6.91598  15.3%  14.0  200s
     156772 31374     cutoff   39         8.16183    6.95195  14.8%  13.9  205s
     161321 32126    7.67379   24   94    8.16183    6.98044  14.5%  13.7  210s
     165611 32628 infeasible   35         8.16183    7.00466  14.2%  13.6  215s
     170181 33178     cutoff   60         8.16183    7.02948  13.9%  13.4  220s
     174828 33786    7.85860   45   61    8.16183    7.05579  13.6%  13.3  225s
     179334 34245    8.09372   30   72    8.16183    7.08011  13.3%  13.1  230s
     184025 34752    7.44004   40   57    8.16183    7.10337  13.0%  13.0  235s
     188387 35134    7.91366   31   78    8.16183    7.12788  12.7%  12.9  240s
     192631 35599    7.85843   43   48    8.16183    7.14518  12.5%  12.8  245s
     197107 36092    7.97999   43   59    8.16183    7.16525  12.2%  12.7  250s
     201193 36539     cutoff   36         8.16183    7.18243  12.0%  12.6  255s
     205614 36887 infeasible   54         8.16183    7.20277  11.8%  12.6  260s
     210012 37154    7.57134   49   58    8.16183    7.22223  11.5%  12.5  265s
     214476 37507    7.48239   33   72    8.16183    7.24285  11.3%  12.4  270s
     218530 37772    7.43947   38   65    8.16183    7.26164  11.0%  12.3  275s
     223095 38349     cutoff   27         8.16183    7.27735  10.8%  12.3  280s
     227635 38754    7.66742   42   52    8.16183    7.29802  10.6%  12.2  285s
     232131 39160    8.06188   47   58    8.16183    7.31369  10.4%  12.1  290s
     235959 39553     cutoff   42         8.16183    7.32863  10.2%  12.1  295s
    
    Cutting planes:
      Learned: 63
      Implied bound: 78
      MIR: 9
      Flow cover: 47
      RLT: 16
      Relax-and-lift: 21
      PSD: 5
    
    Explored 240460 nodes (2889667 simplex iterations) in 300.00 seconds (229.37 work units)
    Thread count was 1 (of 96 available processors)
    
    Solution count 10: 8.16183 8.16183 8.16184 ... 8.48686
    
    Time limit reached
    Best objective 8.161834591434e+00, best bound 7.344615822063e+00, gap 10.0127%
    
    User-callback calls 240532, time in user-callback 0.01 sec

--- Reading solution for model GAMS_MODEL
***
*** Solver did not provide marginals for model GAMS_MODEL
***
--- Executing after solve: elapsed 0:05:00.090
--- model.gms(3567) 4 Mb
--- model.gms(5196) 6 Mb
--- Putfile results /local/scratch/a/sgusev/repos/k_means/data/gams_gurobi_gdp.hull/no_mode/2026-02-14_21-28-56/original/results.dat
--- Putfile statresults /local/scratch/a/sgusev/repos/k_means/data/gams_gurobi_gdp.hull/no_mode/2026-02-14_21-28-56/original/resultsstat.dat
*** Status: Normal completion
--- Job model.gms Stop 02/14/26 21:33:56 elapsed 0:05:00.093
Original problem solved. Time taken: 300.6973834037781 seconds
Original objective value: 8.161834591434012
